computational_data/real_data/solutions/wine_trial_013.sol
Optimal - objective value 6.00000000
      0 r_0                         0                       1
      1 r_1                         1                       1
      2 r_2                         0                       1
      3 r_3                         0                       1
      4 r_4                         0                       1
      5 r_5                         0                       1
      6 r_6                         0                       1
      7 r_7                         0                       1
      8 r_8                         0                       1
      9 r_9                         0                       1
     10 r_10                        0                       1
     11 r_11                        0                       1
     12 r_12                        1                       1
     13 r_13                        0                       1
     14 r_14                        1                       1
     15 r_15                        1                       1
     16 b_0                         0                       1
     17 b_1                         0                       1
     18 b_2                         1                       1
     19 b_3                         0                       1
     20 b_4                         0                       1
     21 b_5                         0                       1
     22 b_6                         0                       1
     23 b_7                         0                       1
     24 b_8                         0                       1
     25 b_9                         0                       1
     26 b_10                        0                       1
     27 b_11                        0                       1
     28 b_12                        0                       1
     29 b_13                        1                       1
     30 b_14                        0                       1
     31 b_15                        0                       1
